100 500 590
9 12
12 9
13 11
13 8
9 9
10 12
12 12
13 10
13 10
13 8
9 12
10 12
13 8
8 10
11 9
8 8
8 12
10 10
13 11
11 13
12 10
8 10
10 13
10 13
13 9
12 12
8 9
8 8
10 10
10 10
8 11
12 10
13 11
13 12
8 13
8 10
8 9
13 11
10 9
8 8
8 9
8 10
9 9
10 12
9 8
11 12
10 12
10 9
9 9
12 13
9 11
13 12
9 11
13 13
11 11
10 10
11 12
11 10
9 11
11 12
12 9
8 10
9 10
10 13
13 12
13 11
11 9
9 11
9 9
10 8
8 9
9 8
12 10
8 9
12 10
8 9
13 13
12 11
10 10
13 12
9 8
12 12
13 8
12 11
10 11
13 9
12 8
11 8
8 10
13 9
11 10
8 8
10 10
8 10
11 12
10 11
10 8
8 13
10 13
11 11
